NAME : X-n157-k13
COMMENT : "Generated by Uchoa, Pecin, Pessoa, Poggi, Subramanian, and Vidal (2013)"
TYPE : CVRP
DIMENSION : 157
EDGE_WEIGHT_TYPE : EUC_2D
CAPACITY : 12
NODE_COORD_SECTION
1 769 259
2 91 377
3 108 338
4 816 567
5 725 520
6 117 357
7 766 559
8 90 417
9 255 430
10 63 384
11 35 276
12 122 318
13 85 322
14 267 348
15 937 546
16 865 461
17 863 547
18 724 431
19 148 144
20 243 571
21 871 512
22 782 596
23 77 272
24 776 650
25 166 371
26 69 239
27 972 607
28 320 521
29 91 434
30 20 305
31 81 271
32 776 669
33 830 553
34 148 243
35 160 202
36 741 527
37 877 561
38 587 551
39 808 435
40 26 278
41 58 394
42 755 444
43 817 557
44 165 367
45 216 510
46 124 330
47 96 587
48 132 369
49 163 234
50 915 492
51 753 657
52 161 319
53 37 227
54 898 747
55 770 524
56 745 582
57 695 469
58 124 355
59 11 283
60 258 406
61 72 335
62 713 399
63 866 626
64 214 344
65 213 349
66 864 577
67 98 440
68 701 512
69 884 559
70 842 518
71 125 379
72 352 410
73 206 228
74 825 592
75 93 252
76 863 511
77 98 347
78 115 326
79 71 392
80 96 248
81 65 404
82 75 342
83 140 300
84 129 340
85 129 273
86 846 696
87 109 463
88 863 586
89 139 356
90 77 351
91 154 322
92 231 323
93 115 394
94 844 558
95 98 454
96 739 568
97 179 443
98 862 618
99 764 764
100 844 554
101 174 319
102 703 319
103 151 453
104 863 569
105 72 473
106 632 575
107 823 578
108 26 42
109 47 381
110 71 336
111 754 484
112 137 465
113 80 355
114 172 296
115 28 310
116 754 579
117 531 662
118 87 382
119 866 481
120 93 337
121 942 567
122 788 567
123 824 451
124 926 901
125 182 500
126 98 384
127 104 370
128 48 462
129 952 629
130 239 324
131 138 516
132 747 605
133 136 460
134 748 624
135 43 268
136 792 597
137 95 352
138 109 413
139 67 224
140 104 386
141 817 672
142 183 360
143 922 652
144 779 419
145 863 721
146 40 456
147 66 395
148 862 465
149 383 357
150 307 434
151 233 421
152 329 280
153 623 554
154 103 349
155 736 688
156 75 266
157 174 406
PICKUP_AND_DELIVERY_SECTION
1 0 0 1000000000 0 0 0
2 0 0 1000000000 0 0.2414 0.7586
3 0 0 1000000000 0 0.3195 0.6805
4 0 0 1000000000 0 0.6949 0.3051
5 0 0 1000000000 0 0.7172 0.2828
6 0 0 1000000000 0 0.3277 0.6723
7 0 0 1000000000 0 0.7298 0.2702
8 0 0 1000000000 0 0.2158 0.7842
9 0 0 1000000000 0 0.593 0.407
10 0 0 1000000000 0 0.1641 0.8359
11 0 0 1000000000 0 0.1268 0.8732
12 0 0 1000000000 0 0.3836 0.6164
13 0 0 1000000000 0 0.264 0.736
14 0 0 1000000000 0 0.7672 0.2328
15 0 0 1000000000 0 0.5827 0.4173
16 0 0 1000000000 0 0.5329 0.4671
17 0 0 1000000000 0 0.6338 0.3662
18 0 0 1000000000 0 0.5953 0.4047
19 0 0 1000000000 0 0.973 0.02703
20 0 0 1000000000 0 0.4256 0.5744
21 0 0 1000000000 0 0.5878 0.4122
22 0 0 1000000000 0 0.7621 0.2379
23 0 0 1000000000 0 0.2831 0.7169
24 0 0 1000000000 0 0.8376 0.1624
25 0 0 1000000000 0 0.4474 0.5526
26 0 0 1000000000 0 0.2887 0.7113
27 0 0 1000000000 0 0.6245 0.3755
28 0 0 1000000000 0 0.6142 0.3858
29 0 0 1000000000 0 0.2097 0.7903
30 0 0 1000000000 0 0.06557 0.9344
31 0 0 1000000000 0 0.2989 0.7011
32 0 0 1000000000 0 0.8621 0.1379
33 0 0 1000000000 0 0.6663 0.3337
34 0 0 1000000000 0 0.6091 0.3909
35 0 0 1000000000 0 0.7921 0.2079
36 0 0 1000000000 0 0.7112 0.2888
37 0 0 1000000000 0 0.6397 0.3603
38 0 0 1000000000 0 0.9387 0.06133
39 0 0 1000000000 0 0.5384 0.4616
40 0 0 1000000000 0 0.09353 0.9065
41 0 0 1000000000 0 0.1472 0.8528
42 0 0 1000000000 0 0.5881 0.4119
43 0 0 1000000000 0 0.6818 0.3182
44 0 0 1000000000 0 0.4496 0.5504
45 0 0 1000000000 0 0.4235 0.5765
46 0 0 1000000000 0 0.3758 0.6242
47 0 0 1000000000 0 0.1635 0.8365
48 0 0 1000000000 0 0.3577 0.6423
49 0 0 1000000000 0 0.6966 0.3034
50 0 0 1000000000 0 0.5377 0.4623
51 0 0 1000000000 0 0.8725 0.1275
52 0 0 1000000000 0 0.5047 0.4953
53 0 0 1000000000 0 0.163 0.837
54 0 0 1000000000 0 0.8318 0.1682
55 0 0 1000000000 0 0.6805 0.3195
56 0 0 1000000000 0 0.7812 0.2188
57 0 0 1000000000 0 0.6748 0.3252
58 0 0 1000000000 0 0.3493 0.6507
59 0 0 1000000000 0 0.03887 0.9611
60 0 0 1000000000 0 0.6355 0.3645
61 0 0 1000000000 0 0.2149 0.7851
62 0 0 1000000000 0 0.5596 0.4404
63 0 0 1000000000 0 0.7229 0.2771
64 0 0 1000000000 0 0.6221 0.3779
65 0 0 1000000000 0 0.6103 0.3897
66 0 0 1000000000 0 0.6678 0.3322
67 0 0 1000000000 0 0.2227 0.7773
68 0 0 1000000000 0 0.7304 0.2696
69 0 0 1000000000 0 0.6324 0.3676
70 0 0 1000000000 0 0.6152 0.3848
71 0 0 1000000000 0 0.3298 0.6702
72 0 0 1000000000 0 0.8585 0.1415
73 0 0 1000000000 0 0.9035 0.09649
74 0 0 1000000000 0 0.7176 0.2824
75 0 0 1000000000 0 0.369 0.631
76 0 0 1000000000 0 0.5921 0.4079
77 0 0 1000000000 0 0.2824 0.7176
78 0 0 1000000000 0 0.3528 0.6472
79 0 0 1000000000 0 0.1811 0.8189
80 0 0 1000000000 0 0.3871 0.6129
81 0 0 1000000000 0 0.1609 0.8391
82 0 0 1000000000 0 0.2193 0.7807
83 0 0 1000000000 0 0.4667 0.5333
84 0 0 1000000000 0 0.3794 0.6206
85 0 0 1000000000 0 0.4725 0.5275
86 0 0 1000000000 0 0.8227 0.1773
87 0 0 1000000000 0 0.2354 0.7646
88 0 0 1000000000 0 0.679 0.321
89 0 0 1000000000 0 0.3904 0.6096
90 0 0 1000000000 0 0.2194 0.7806
91 0 0 1000000000 0 0.4783 0.5217
92 0 0 1000000000 0 0.7152 0.2848
93 0 0 1000000000 0 0.2919 0.7081
94 0 0 1000000000 0 0.6611 0.3389
95 0 0 1000000000 0 0.2159 0.7841
96 0 0 1000000000 0 0.7686 0.2314
97 0 0 1000000000 0 0.4041 0.5959
98 0 0 1000000000 0 0.7169 0.2831
99 0 0 1000000000 0 1 0
100 0 0 1000000000 0 0.6564 0.3436
101 0 0 1000000000 0 0.5455 0.4545
102 0 0 1000000000 0 0.4538 0.5462
103 0 0 1000000000 0 0.3333 0.6667
104 0 0 1000000000 0 0.6593 0.3407
105 0 0 1000000000 0 0.1522 0.8478
106 0 0 1000000000 0 0.9098 0.09019
107 0 0 1000000000 0 0.7023 0.2977
108 0 0 1000000000 0 0.619 0.381
109 0 0 1000000000 0 0.1234 0.8766
110 0 0 1000000000 0 0.2113 0.7887
111 0 0 1000000000 0 0.6419 0.3581
112 0 0 1000000000 0 0.2946 0.7054
113 0 0 1000000000 0 0.2254 0.7746
114 0 0 1000000000 0 0.5811 0.4189
115 0 0 1000000000 0 0.09032 0.9097
116 0 0 1000000000 0 0.7679 0.2321
117 0 0 1000000000 0 0.8021 0.1979
118 0 0 1000000000 0 0.2277 0.7723
119 0 0 1000000000 0 0.5554 0.4446
120 0 0 1000000000 0 0.276 0.724
121 0 0 1000000000 0 0.6019 0.3981
122 0 0 1000000000 0 0.7195 0.2805
123 0 0 1000000000 0 0.5473 0.4527
124 0 0 1000000000 0 0.973 0.027
125 0 0 1000000000 0 0.364 0.636
126 0 0 1000000000 0 0.2552 0.7448
127 0 0 1000000000 0 0.2811 0.7189
128 0 0 1000000000 0 0.1039 0.8961
129 0 0 1000000000 0 0.6607 0.3393
130 0 0 1000000000 0 0.7377 0.2623
131 0 0 1000000000 0 0.2674 0.7326
132 0 0 1000000000 0 0.8099 0.1901
133 0 0 1000000000 0 0.2957 0.7043
134 0 0 1000000000 0 0.8342 0.1658
135 0 0 1000000000 0 0.1604 0.8396
136 0 0 1000000000 0 0.7538 0.2462
137 0 0 1000000000 0 0.2699 0.7301
138 0 0 1000000000 0 0.2639 0.7361
139 0 0 1000000000 0 0.2991 0.7009
140 0 0 1000000000 0 0.2694 0.7306
141 0 0 1000000000 0 0.8225 0.1775
142 0 0 1000000000 0 0.5083 0.4917
143 0 0 1000000000 0 0.7072 0.2928
144 0 0 1000000000 0 0.5379 0.4621
145 0 0 1000000000 0 0.8355 0.1645
146 0 0 1000000000 0 0.08772 0.9123
147 0 0 1000000000 0 0.1671 0.8329
148 0 0 1000000000 0 0.5394 0.4606
149 0 0 1000000000 0 0.9321 0.06789
150 0 0 1000000000 0 0.7074 0.2926
151 0 0 1000000000 0 0.5534 0.4466
152 0 0 1000000000 0 0.8511 0.1489
153 0 0 1000000000 0 0.8892 0.1108
154 0 0 1000000000 0 0.2951 0.7049
155 0 0 1000000000 0 0.9348 0.06522
156 0 0 1000000000 0 0.282 0.718
157 0 0 1000000000 0 0.4286 0.5714
